
Gurobi 8.1.0 (mac64) logging started Fri May 10 22:29:42 2019

Academic license - for non-commercial use only

Gurobi Optimizer version 8.1.0 build v8.1.0rc1 (mac64)
Copyright (c) 2018, Gurobi Optimization, LLC

Read LP format model from file lp_output.lp
Reading time = 0.14 seconds
MaxAlag: 28101 rows, 27682 columns, 131765 nonzeros
Optimize a model with 28101 rows, 27682 columns and 131765 nonzeros
Variable types: 42 continuous, 27640 integer (0 binary)
Coefficient statistics:
  Matrix range     [1e+00, 4e+02]
  Objective range  [1e+00, 5e+00]
  Bounds range     [1e+00, 1e+00]
  RHS range        [1e+00, 7e+02]
Presolve removed 4217 rows and 3691 columns
Presolve time: 0.59s
Presolved: 23884 rows, 23991 columns, 93300 nonzeros
Variable types: 0 continuous, 23991 integer (23950 binary)
Found heuristic solution: objective 98358.000000
Found heuristic solution: objective 22102.000000

Root simplex log...

Iteration    Objective       Primal Inf.    Dual Inf.      Time
   12089    8.2200009e+03   2.498185e+01   0.000000e+00      5s
   12378    8.2200000e+03   0.000000e+00   0.000000e+00      5s

Root relaxation: objective 8.220000e+03, 12378 iterations, 4.60 seconds
Total elapsed time = 10.09s

    Nodes    |    Current Node    |     Objective Bounds      |     Work
 Expl Unexpl |  Obj  Depth IntInf | Incumbent    BestBd   Gap | It/Node Time

     0     0 8220.00000    0  257 22102.0000 8220.00000  62.8%     -   14s
H    0     0                    11728.000000 8220.00000  29.9%     -   14s
H    0     0                    10901.000000 8220.00000  24.6%     -   14s
H    0     0                    10411.000000 8220.00000  21.0%     -   24s
     0     0 8220.00000    0  303 10411.0000 8220.00000  21.0%     -   25s
     0     0 8220.00000    0  226 10411.0000 8220.00000  21.0%     -   30s
     0     0 8220.00000    0  160 10411.0000 8220.00000  21.0%     -   33s
     0     0 8220.00000    0  159 10411.0000 8220.00000  21.0%     -   33s
     0     0 8220.00000    0  217 10411.0000 8220.00000  21.0%     -   35s
     0     0 8220.00000    0  210 10411.0000 8220.00000  21.0%     -   36s
     0     0 8220.00000    0  161 10411.0000 8220.00000  21.0%     -   38s
     0     0 8220.00000    0  160 10411.0000 8220.00000  21.0%     -   39s
     0     0 8220.00000    0  223 10411.0000 8220.00000  21.0%     -   41s
     0     0 8220.00000    0  154 10411.0000 8220.00000  21.0%     -   42s
     0     2 8220.00000    0  154 10411.0000 8220.00000  21.0%     -   45s
    27    29 8220.00000   11  222 10411.0000 8220.00000  21.0%   843   52s
    29    30 8220.00000   12  222 10411.0000 8220.00000  21.0%   785   55s
    52    52 8220.00000   20  222 10411.0000 8220.00000  21.0%   440   60s
    86    88 8220.00000   32  224 10411.0000 8220.00000  21.0%   268   70s
    95    96 8220.00000   40  224 10411.0000 8220.00000  21.0%   243   78s
   135   133 8220.00000   59  224 10411.0000 8220.00000  21.0%   172   80s

Cutting planes:
  Gomory: 1
  MIR: 6
  StrongCG: 5

Explored 145 nodes (135398 simplex iterations) in 80.38 seconds
Thread count was 4 (of 4 available processors)

Solution count 5: 10411 10901 11728 ... 98358

Solve interrupted
Best objective 1.041100000000e+04, best bound 8.220000000000e+03, gap 21.0450%

Wrote result file 'solution.sol'


Gurobi 8.1.0 (mac64) logging started Fri May 10 22:39:39 2019

Academic license - for non-commercial use only

Gurobi Optimizer version 8.1.0 build v8.1.0rc1 (mac64)
Copyright (c) 2018, Gurobi Optimization, LLC

Read LP format model from file lp_output.lp
Reading time = 0.14 seconds
MaxAlag: 28096 rows, 27682 columns, 131755 nonzeros
Optimize a model with 28096 rows, 27682 columns and 131755 nonzeros
Variable types: 42 continuous, 27640 integer (0 binary)
Coefficient statistics:
  Matrix range     [1e+00, 4e+02]
  Objective range  [1e+00, 5e+00]
  Bounds range     [1e+00, 1e+00]
  RHS range        [1e+00, 7e+02]
Presolve removed 4217 rows and 3691 columns
Presolve time: 0.59s
Presolved: 23879 rows, 23991 columns, 93290 nonzeros
Variable types: 0 continuous, 23991 integer (23950 binary)
Found heuristic solution: objective 52593.000000
Found heuristic solution: objective 22102.000000

Root simplex log...

Iteration    Objective       Primal Inf.    Dual Inf.      Time
   11110    4.1100006e+03   6.634949e+01   0.000000e+00      5s
   11401    4.1100000e+03   0.000000e+00   0.000000e+00      5s

Root relaxation: objective 4.110000e+03, 11401 iterations, 4.67 seconds
Total elapsed time = 10.47s
Total elapsed time = 17.32s

    Nodes    |    Current Node    |     Objective Bounds      |     Work
 Expl Unexpl |  Obj  Depth IntInf | Incumbent    BestBd   Gap | It/Node Time

     0     0 4110.00000    0  352 22102.0000 4110.00000  81.4%     -   19s
H    0     0                    16052.000000 4110.00000  74.4%     -   23s
H    0     0                    10874.000000 4110.00000  62.2%     -   30s
     0     0 4110.00000    0  428 10874.0000 4110.00000  62.2%     -   33s
     0     0 4110.00000    0  415 10874.0000 4110.00000  62.2%     -   38s
     0     0 4110.00000    0  418 10874.0000 4110.00000  62.2%     -   41s
     0     0 4110.00000    0  399 10874.0000 4110.00000  62.2%     -   43s
     0     0 4110.00000    0  163 10874.0000 4110.00000  62.2%     -   47s
     0     0 4110.00000    0  254 10874.0000 4110.00000  62.2%     -   47s
     0     0 4110.00000    0  315 10874.0000 4110.00000  62.2%     -   49s
     0     0 4110.00000    0  237 10874.0000 4110.00000  62.2%     -   49s
     0     0 4110.00000    0  174 10874.0000 4110.00000  62.2%     -   52s
     0     0 4110.00000    0  174 10874.0000 4110.00000  62.2%     -   52s
H    0     0                    8902.0000000 4110.00000  53.8%     -   54s
H    0     0                    8781.0000000 4110.00000  53.2%     -   54s
H    0     0                    8506.0000000 4110.00000  51.7%     -   54s
     0     2 4110.00000    0  174 8506.00000 4110.00000  51.7%     -   55s
     9     9 4110.00000    4  568 8506.00000 4110.00000  51.7%  1558   60s
    19    19 4110.00000    8  641 8506.00000 4110.00000  51.7%  1368   67s

Cutting planes:
  Gomory: 1
  MIR: 15
  StrongCG: 6

Explored 25 nodes (178249 simplex iterations) in 68.78 seconds
Thread count was 4 (of 4 available processors)

Solution count 7: 8506 8781 8902 ... 52593

Solve interrupted
Best objective 8.506000000000e+03, best bound 4.110000000000e+03, gap 51.6812%

Wrote result file 'solution.sol'


Gurobi 8.1.0 (mac64) logging started Fri May 10 22:45:25 2019

Academic license - for non-commercial use only

Gurobi Optimizer version 8.1.0 build v8.1.0rc1 (mac64)
Copyright (c) 2018, Gurobi Optimization, LLC

Read LP format model from file lp_output.lp
Reading time = 0.14 seconds
MaxAlag: 28101 rows, 27683 columns, 131765 nonzeros
Optimize a model with 28101 rows, 27683 columns and 131765 nonzeros
Variable types: 43 continuous, 27640 integer (0 binary)
Coefficient statistics:
  Matrix range     [1e+00, 4e+02]
  Objective range  [1e+00, 5e+00]
  Bounds range     [1e+00, 1e+00]
  RHS range        [1e+00, 7e+02]
Presolve removed 4217 rows and 3691 columns
Presolve time: 0.62s
Presolved: 23884 rows, 23992 columns, 93300 nonzeros
Variable types: 0 continuous, 23992 integer (23950 binary)
Found heuristic solution: objective 66883.000000
Found heuristic solution: objective 26199.000000

Root simplex log...

Iteration    Objective       Primal Inf.    Dual Inf.      Time
   10180    4.9320010e+03   1.203542e+03   0.000000e+00      5s
   11663    4.9320000e+03   0.000000e+00   0.000000e+00      7s

Root relaxation: objective 4.932000e+03, 11663 iterations, 6.09 seconds
Total elapsed time = 11.83s
Total elapsed time = 15.37s

    Nodes    |    Current Node    |     Objective Bounds      |     Work
 Expl Unexpl |  Obj  Depth IntInf | Incumbent    BestBd   Gap | It/Node Time

     0     0 4932.00000    0  401 26199.0000 4932.00000  81.2%     -   16s
H    0     0                    15213.000000 4932.00000  67.6%     -   17s
H    0     0                    13095.000000 4932.00000  62.3%     -   32s
     0     0 4932.00000    0  658 13095.0000 4932.00000  62.3%     -   33s
     0     0 4932.00000    0  606 13095.0000 4932.00000  62.3%     -   37s
     0     0 4932.00000    0  304 13095.0000 4932.00000  62.3%     -   42s

Cutting planes:
  Gomory: 3
  MIR: 9
  StrongCG: 2

Explored 1 nodes (88693 simplex iterations) in 42.03 seconds
Thread count was 4 (of 4 available processors)

Solution count 4: 13095 15213 26199 66883 

Solve interrupted
Best objective 1.309500000000e+04, best bound 4.932000000000e+03, gap 62.3368%

Wrote result file 'solution.sol'


Gurobi 8.1.0 (mac64) logging started Fri May 10 22:47:25 2019

Academic license - for non-commercial use only

Gurobi Optimizer version 8.1.0 build v8.1.0rc1 (mac64)
Copyright (c) 2018, Gurobi Optimization, LLC

Read LP format model from file lp_output.lp
Reading time = 0.13 seconds
MaxAlag: 28101 rows, 27683 columns, 131765 nonzeros
Optimize a model with 28101 rows, 27683 columns and 131765 nonzeros
Variable types: 43 continuous, 27640 integer (0 binary)
Coefficient statistics:
  Matrix range     [1e+00, 4e+02]
  Objective range  [1e+00, 1e+01]
  Bounds range     [1e+00, 1e+00]
  RHS range        [1e+00, 7e+02]
Presolve removed 4217 rows and 3691 columns
Presolve time: 0.60s
Presolved: 23884 rows, 23992 columns, 93300 nonzeros
Variable types: 0 continuous, 23992 integer (23950 binary)
Found heuristic solution: objective 92568.000000
Found heuristic solution: objective 35649.000000

Root simplex log...

Iteration    Objective       Primal Inf.    Dual Inf.      Time
   10060    4.9320010e+03   2.878027e+04   0.000000e+00      5s
   11663    4.9320000e+03   0.000000e+00   0.000000e+00      7s

Root relaxation: objective 4.932000e+03, 11663 iterations, 6.22 seconds
Total elapsed time = 12.41s
Total elapsed time = 15.86s

    Nodes    |    Current Node    |     Objective Bounds      |     Work
 Expl Unexpl |  Obj  Depth IntInf | Incumbent    BestBd   Gap | It/Node Time

     0     0 4932.00000    0  401 35649.0000 4932.00000  86.2%     -   16s
H    0     0                    22553.000000 4932.00000  78.1%     -   17s
H    0     0                    19140.000000 4932.00000  74.2%     -   22s
     0     0 4932.00000    0  658 19140.0000 4932.00000  74.2%     -   24s
     0     0 4932.00000    0  606 19140.0000 4932.00000  74.2%     -   28s
     0     0 4932.00000    0  225 19140.0000 4932.00000  74.2%     -   32s
H    0     0                    12224.000000 4932.00000  59.7%     -   36s
     0     0 4932.00000    0  276 12224.0000 4932.00000  59.7%     -   38s
     0     0 4932.00000    0  140 12224.0000 4932.00000  59.7%     -   40s
H    0     0                    11514.000000 4932.00000  57.2%     -   46s
     0     0 4932.00000    0  138 11514.0000 4932.00000  57.2%     -   46s
     0     0 4932.00000    0  140 11514.0000 4932.00000  57.2%     -   49s
H    0     0                    11513.000000 4932.00000  57.2%     -   61s
     0     0 4932.00000    0  381 11513.0000 4932.00000  57.2%     -   61s
     0     0 4932.00000    0  152 11513.0000 4932.00000  57.2%     -   63s
     0     0 4932.00000    0  335 11513.0000 4932.00000  57.2%     -   65s
     0     0 4932.00000    0  198 11513.0000 4932.00000  57.2%     -   66s
     0     2 4932.00000    0  198 11513.0000 4932.00000  57.2%     -   68s
    13    15 4932.00000    6  197 11513.0000 4932.00000  57.2%   386   70s
    34    36 4932.00000   15  198 11513.0000 4932.00000  57.2%   150   87s
    41    43 4932.00000   18  198 11513.0000 4932.00000  57.2%   126   94s
    73    73 4932.00000   32  198 11513.0000 4932.00000  57.2%  72.7  103s
   113   111 4932.00000   45  196 11513.0000 4932.00000  57.2%  48.7  106s

Cutting planes:
  Gomory: 1
  MIR: 10
  StrongCG: 2

Explored 124 nodes (156741 simplex iterations) in 106.44 seconds
Thread count was 4 (of 4 available processors)

Solution count 7: 11513 11514 12224 ... 92568

Solve interrupted
Best objective 1.151300000000e+04, best bound 4.932000000000e+03, gap 57.1615%

Wrote result file 'solution.sol'


Gurobi 8.1.0 (mac64) logging started Fri May 10 23:01:07 2019

Academic license - for non-commercial use only

Gurobi Optimizer version 8.1.0 build v8.1.0rc1 (mac64)
Copyright (c) 2018, Gurobi Optimization, LLC

Read LP format model from file lp_output.lp
Reading time = 0.13 seconds
MaxAlag: 28101 rows, 27683 columns, 131765 nonzeros
Optimize a model with 28101 rows, 27683 columns and 131765 nonzeros
Variable types: 43 continuous, 27640 integer (0 binary)
Coefficient statistics:
  Matrix range     [1e+00, 4e+02]
  Objective range  [1e+00, 1e+01]
  Bounds range     [1e+00, 1e+00]
  RHS range        [1e+00, 7e+02]
Presolve removed 4217 rows and 3691 columns
Presolve time: 0.54s
Presolved: 23884 rows, 23992 columns, 93300 nonzeros
Variable types: 0 continuous, 23992 integer (23950 binary)
Found heuristic solution: objective 113605.00000
Found heuristic solution: objective 35571.000000

Root simplex log...

Iteration    Objective       Primal Inf.    Dual Inf.      Time
   22212    4.0410648e+01   6.828800e+05   0.000000e+00      5s
   25661    4.9390000e+03   0.000000e+00   0.000000e+00      8s

Root relaxation: objective 4.939000e+03, 25661 iterations, 7.13 seconds
Total elapsed time = 19.60s
Total elapsed time = 21.02s

    Nodes    |    Current Node    |     Objective Bounds      |     Work
 Expl Unexpl |  Obj  Depth IntInf | Incumbent    BestBd   Gap | It/Node Time

     0     0 4939.00000    0 1581 35571.0000 4939.00000  86.1%     -   24s
H    0     0                    19702.000000 4939.00000  74.9%     -   28s
     0     0 4939.00000    0 2253 19702.0000 4939.00000  74.9%     -   43s
     0     0 4939.00000    0 2321 19702.0000 4939.00000  74.9%     -   80s
     0     0 4939.00000    0 1678 19702.0000 4939.00000  74.9%     -  115s
     0     0 4939.00000    0 2264 19702.0000 4939.00000  74.9%     -  125s
     0     0          -    0      19702.0000 4939.00000  74.9%     -  128s

Cutting planes:
  Gomory: 41
  MIR: 3
  StrongCG: 2

Explored 1 nodes (216039 simplex iterations) in 128.81 seconds
Thread count was 4 (of 4 available processors)

Solution count 3: 19702 35571 113605 

Solve interrupted
Best objective 1.970200000000e+04, best bound 4.939000000000e+03, gap 74.9315%

Wrote result file 'solution.sol'


Gurobi 8.1.0 (mac64) logging started Fri May 10 23:09:11 2019

Academic license - for non-commercial use only

Gurobi Optimizer version 8.1.0 build v8.1.0rc1 (mac64)
Copyright (c) 2018, Gurobi Optimization, LLC

Read LP format model from file lp_output.lp
Reading time = 0.14 seconds
MaxAlag: 28101 rows, 27683 columns, 131765 nonzeros
Optimize a model with 28101 rows, 27683 columns and 131765 nonzeros
Variable types: 43 continuous, 27640 integer (0 binary)
Coefficient statistics:
  Matrix range     [1e+00, 4e+02]
  Objective range  [1e+00, 1e+01]
  Bounds range     [1e+00, 1e+00]
  RHS range        [1e+00, 7e+02]
Presolve removed 4217 rows and 3691 columns
Presolve time: 0.54s
Presolved: 23884 rows, 23992 columns, 93300 nonzeros
Variable types: 0 continuous, 23992 integer (23950 binary)
Found heuristic solution: objective 113605.00000
Found heuristic solution: objective 35571.000000

Root simplex log...

Iteration    Objective       Primal Inf.    Dual Inf.      Time
   22382    7.6649850e+01   8.744565e+06   0.000000e+00      5s
   25661    4.9390000e+03   0.000000e+00   0.000000e+00      8s

Root relaxation: objective 4.939000e+03, 25661 iterations, 7.06 seconds
Total elapsed time = 19.49s
Total elapsed time = 20.92s

    Nodes    |    Current Node    |     Objective Bounds      |     Work
 Expl Unexpl |  Obj  Depth IntInf | Incumbent    BestBd   Gap | It/Node Time

     0     0 4939.00000    0 1581 35571.0000 4939.00000  86.1%     -   23s
H    0     0                    19702.000000 4939.00000  74.9%     -   27s
     0     0 4939.00000    0 2253 19702.0000 4939.00000  74.9%     -   45s
     0     0 4939.00000    0 2321 19702.0000 4939.00000  74.9%     -   82s
     0     0 4939.00000    0 1678 19702.0000 4939.00000  74.9%     -  117s
     0     0 4939.00000    0 2264 19702.0000 4939.00000  74.9%     -  127s
     0     0 4943.36647    0 1936 19702.0000 4943.36647  74.9%     -  174s
     0     0 4943.36865    0 2120 19702.0000 4943.36865  74.9%     -  186s
     0     0 4943.37329    0 2183 19702.0000 4943.37329  74.9%     -  211s
     0     0 4943.37637    0 2526 19702.0000 4943.37637  74.9%     -  223s
     0     0 4943.37752    0 2716 19702.0000 4943.37752  74.9%     -  230s
     0     0 4943.37865    0 2698 19702.0000 4943.37865  74.9%     -  233s
     0     0 4948.04709    0 2978 19702.0000 4948.04709  74.9%     -  285s
     0     0 4948.04970    0 2507 19702.0000 4948.04970  74.9%     -  294s
     0     0 4948.05268    0 2869 19702.0000 4948.05268  74.9%     -  302s
     0     0 4948.05810    0 2224 19702.0000 4948.05810  74.9%     -  308s
     0     0 4948.05810    0 2241 19702.0000 4948.05810  74.9%     -  311s
     0     0 4948.61439    0 2113 19702.0000 4948.61439  74.9%     -  334s
H    0     0                    16019.000000 4948.61439  69.1%     -  337s
     0     0 4948.64303    0 2037 16019.0000 4948.64303  69.1%     -  351s
     0     0 4948.66184    0 2062 16019.0000 4948.66184  69.1%     -  365s
     0     0 4948.66657    0 1983 16019.0000 4948.66657  69.1%     -  372s
     0     0 4948.66877    0 2081 16019.0000 4948.66877  69.1%     -  382s
     0     0 4948.68455    0 2120 16019.0000 4948.68455  69.1%     -  391s
H    0     0                    15965.000000 4948.68455  69.0%     -  392s
     0     0 4948.68587    0 2087 15965.0000 4948.68587  69.0%     -  399s
     0     0 4948.82551    0 3117 15965.0000 4948.82551  69.0%     -  448s
     0     0 4948.83298    0 3206 15965.0000 4948.83298  69.0%     -  468s
     0     0 4948.83831    0 2859 15965.0000 4948.83831  69.0%     -  474s
     0     0 4948.84133    0 2725 15965.0000 4948.84133  69.0%     -  481s
     0     0 4949.04367    0 2923 15965.0000 4949.04367  69.0%     -  525s
H    0     0                    15927.000000 4949.04367  68.9%     -  527s
     0     0 4949.05238    0 2516 15927.0000 4949.05238  68.9%     -  547s
     0     0 4949.05501    0 2424 15927.0000 4949.05501  68.9%     -  562s
     0     0 4949.07063    0 2824 15927.0000 4949.07063  68.9%     -  586s
H    0     0                    15622.000000 4949.07063  68.3%     -  589s
     0     0 4949.07372    0 2530 15622.0000 4949.07372  68.3%     -  601s
     0     0 4949.08322    0 2970 15622.0000 4949.08322  68.3%     -  629s
     0     0 4949.08322    0 1894 15622.0000 4949.08322  68.3%     -  649s
H    0     0                    15467.000000 4949.08322  68.0%     -  683s
H    0     0                    15456.000000 4949.08322  68.0%     -  683s
H    0     0                    14679.000000 4949.08322  66.3%     -  683s
H    0     0                    11956.000000 4949.08322  58.6%     -  688s
H    0     0                    11946.000000 4949.08322  58.6%     -  691s
     0     2 4949.08322    0 1693 11946.0000 4949.08322  58.6%     -  739s
     3     6 4949.08389    2 2419 11946.0000 4949.08322  58.6% 10269  785s
H   73    74                    11732.000000 4949.08322  57.8%   651  792s
    75    76 4949.08389   35 2417 11732.0000 4949.08322  57.8%   634  795s
   100   102 4949.08389   48 2419 11732.0000 4949.08322  57.8%   477  814s
   104   105 4949.08389   50 2419 11732.0000 4949.08322  57.8%   458  817s
   138   138 4949.08389   71 2417 11732.0000 4949.08322  57.8%   346  821s
   147   148 4949.08389   72 2419 11732.0000 4949.08322  57.8%   325  825s
   193   193 4949.08389   90 2416 11732.0000 4949.08322  57.8%   248  870s
   217   219 4949.08389   99 2415 11732.0000 4949.08322  57.8%   475  909s
H  218   220                    11538.000000 4949.08322  57.1%   473  909s
   219   220 4949.08389  100 2417 11538.0000 4949.08322  57.1%   600  931s
   236   238 4951.08389  115 2411 11538.0000 4949.08322  57.1%   694  977s
   239   240 4952.08389  116 2367 11538.0000 4949.08322  57.1%  1008  993s
   241   241 4953.08389  117 2327 11538.0000 4949.08322  57.1%  1177 1017s
   243   244 4954.08389  118 2304 11538.0000 4949.08322  57.1%  1304 1037s
   245   247 4954.08389  118 2365 11538.0000 4949.08322  57.1%  1418 1062s
H  246   247                    10115.000000 4949.08322  51.1%  1412 1062s
   247   245 4955.10394  119 2567 10115.0000 4949.08322  51.1%  1548 1103s
   249   243 4955.10394  119 2228 10115.0000 4949.08322  51.1%  1887 1124s
   252   243     cutoff  120      10115.0000 4949.08322  51.1%  2283 1171s
   254   243     cutoff  120      10115.0000 4949.08322  51.1%  2435 1187s
   256   243     cutoff  120      10115.0000 4949.08322  51.1%  2539 1207s
   258   247 4949.08501    2 2816 10115.0000 4949.08389  51.1%  2772 1251s
   300   285 4949.08603    3 2741 10115.0000 4949.08389  51.1%  2526 1280s
H  302   288                    9964.0000000 4949.08389  50.3%  2614 1346s
   304   293 4949.08603    5 2742 9964.00000 4949.08389  50.3%  2703 1394s
H  330   293                    9856.0000000 4949.08389  49.8%  2491 1394s
   332   316 4949.08603   29 2741 9856.00000 4949.08389  49.8%  2607 1439s
   360   347 4949.08603   53 2742 9856.00000 4949.08389  49.8%  2584 1469s
   379   359 4953.08603   67 2604 9856.00000 4949.08389  49.8%  2666 1524s
H  385   363                    9463.0000000 4949.08389  47.7%  2625 1524s
   386   362 4954.08603   68 2704 9463.00000 4949.08389  47.7%  2742 1575s
   389   366 4955.08665   69 2703 9463.00000 4949.08389  47.7%  2894 1606s
   416   391 4955.08665   69 2499 9463.00000 4949.08389  47.7%  2747 1680s
   433   409 4956.13876   70 2369 9463.00000 4949.08389  47.7%  2981 1724s
   435   406     cutoff   71      9463.00000 4949.08389  47.7%  3177 1771s
   439   407 5786.53456   70 3119 9463.00000 4949.08389  47.7%  3500 1829s
H  443   410                    9462.0000000 4949.08389  47.7%  3575 1865s
   446   408     cutoff   71      9462.00000 4949.08389  47.7%  3747 1909s
   450   412 5787.41708   71 2743 9462.00000 4949.08389  47.7%  3972 1962s
   455   410 5888.01935   75 2724 9462.00000 4949.08389  47.7%  4165 2004s
   486   430     cutoff   98      9462.00000 4949.08389  47.7%  4124 2043s
H  494   430                    9387.0000000 4949.08389  47.3%  4057 2043s
   503   432     cutoff  104      9387.00000 4949.08389  47.3%  4137 2101s
   512   435     cutoff  105      9387.00000 4949.08389  47.3%  4202 2622s
   541   458     cutoff  104      9387.00000 4949.08389  47.3%  4088 2681s
   593   508 4949.08792    7 2859 9387.00000 4949.08389  47.3%  3942 2747s
   595   512 4949.08792    8 2858 9387.00000 4949.08389  47.3%  3998 2808s
   661   579 4949.08792   48 2860 9387.00000 4949.08389  47.3%  3706 2871s
   742   656 4949.08389   32 1894 9387.00000 4949.08389  47.3%  3412 2973s
   744   657 4949.08501    9 1674 9387.00000 4949.08389  47.3%  3402 2997s
   745   658 4949.08389   14 1962 9387.00000 4949.08389  47.3%  3398 3022s
   746   659 4949.08389   26 2554 9387.00000 4949.08389  47.3%  3393 3058s
   747   659 4949.08792   64 2389 9387.00000 4949.08389  47.3%  3389 3090s
   748   660 4949.08792   50 2294 9387.00000 4949.08389  47.3%  3384 3117s
   749   661 5906.12216   82 2316 9387.00000 4949.08719  47.3%  3380 3127s
   750   661 4949.08878   82 2537 9387.00000 4949.08878  47.3%  3375 3146s
   751   662 4950.08665   50 2577 9387.00000 4949.09313  47.3%  3371 3153s
   752   663 4949.09356  105 2538 9387.00000 4949.09356  47.3%  3366 3164s
   753   663 4949.10751   33 2026 9387.00000 4949.10751  47.3%  3362 3196s
   754   664 4949.11170   37 2177 9387.00000 4949.11170  47.3%  3357 3206s
   755   665 4949.11947   12 2338 9387.00000 4949.11947  47.3%  3353 3226s
   756   665 4949.12285   29 2289 9387.00000 4949.12285  47.3%  3348 3232s
   757   666 4949.12486   79 2394 9387.00000 4949.12486  47.3%  3344 3238s
   758   667 4949.12925   12 2516 9387.00000 4949.12925  47.3%  3340 3259s
   759   667 4949.13097   64 2619 9387.00000 4949.13097  47.3%  3335 3263s
   760   668 4949.13138   39 2575 9387.00000 4949.13138  47.3%  3331 3276s
   761   669 4960.51608   44 1114 9387.00000 4949.26620  47.3%  3326 3355s
   762   669 4949.26652   90 1350 9387.00000 4949.26652  47.3%  3322 3360s
   763   670 4949.27141   40 1297 9387.00000 4949.27141  47.3%  3318 3435s
   764   671 4987.58792   99 2056 9387.00000 4949.27196  47.3%  3313 3450s
   765   671 4949.27229   25 1736 9387.00000 4949.27229  47.3%  3309 3461s
   766   672 4949.27250   16 1244 9387.00000 4949.27250  47.3%  3305 3514s
   767   673 4949.27300   79 1877 9387.00000 4949.27300  47.3%  3300 3527s
   768   673 4952.08665   52 1572 9387.00000 4949.28479  47.3%  3296 3579s
   769   674 4949.28493   61 1906 9387.00000 4949.28493  47.3%  3292 3586s
   770   675 4949.43763   34 1575 9387.00000 4949.43763  47.3%  3288 3618s
   771   675 4949.43810   29 2133 9387.00000 4949.43810  47.3%  3283 3634s
   772   676 4949.43845   30 1651 9387.00000 4949.43845  47.3%  3279 3656s
   773   677 4951.08792   93 2298 9387.00000 4949.43866  47.3%  3275 3670s
   774   677 4949.43879   45 1533 9387.00000 4949.43879  47.3%  3271 3713s
   775   678 4949.44107  101 1907 9387.00000 4949.44107  47.3%  3266 3729s
   776   679 4949.44159   89 2076 9387.00000 4949.44159  47.3%  3262 3739s
   777   679 4949.44193   35 1510 9387.00000 4949.44193  47.3%  3258 3774s
   778   680 4949.44208   29 2260 9387.00000 4949.44208  47.3%  3254 3786s
   779   681 4949.44395   60 1835 9387.00000 4949.44395  47.3%  3250 3842s
   780   681 4949.44421   36 2451 9387.00000 4949.44421  47.3%  3245 4509s

Cutting planes:
  Gomory: 74
  MIR: 6
  StrongCG: 3
  Flow cover: 9
  Zero half: 14

Explored 780 nodes (4388070 simplex iterations) in 4554.12 seconds
Thread count was 4 (of 4 available processors)

Solution count 10: 9387 9462 9463 ... 11956

Solve interrupted
Best objective 9.387000000000e+03, best bound 4.950000000000e+03, gap 47.2675%

Wrote result file 'solution.sol'

